(declare-const c_0 Real)
(declare-const c_1 Real)
(declare-const c_2 Real)
(declare-const c_3 Real)
(declare-const c_4 Real)
(declare-const c_5 Real)
(declare-const c_6 Real)
(declare-const c_7 Real)
(declare-const c_8 Real)
(declare-const c_9 Real)
(declare-const c_10 Real)
(declare-const c_11 Real)
(declare-const s_0 Real)
(declare-const s_1 Real)
(declare-const s_2 Real)
(declare-const s_3 Real)
(declare-const s_4 Real)
(declare-const s_5 Real)
(declare-const s_6 Real)
(declare-const s_7 Real)
(declare-const s_8 Real)
(declare-const s_9 Real)
(declare-const s_10 Real)
(declare-const s_11 Real)
(assert (forall ((a Real) (max Real) (x Real) ) (=> (and (>= (+ (* 1024 1) (* 1 a ) ) 0) (>= (+ (* 1023 1) (* (- 1) a ) ) 0) (>= (+ (* 1024 1) (* 1 max ) ) 0) (>= (+ (* 1023 1) (* (- 1) max ) ) 0) (>= (+ (* 1024 1) (* 1 x ) ) 0) (>= (+ (* 1023 1) (* (- 1) x ) ) 0) ) (>= (+ (* 1 a s_1 ) (* 1 max s_2 ) (* 1 s_0 ) (* 1 s_3 x ) ) 0) )))
(assert (forall ((a Real) (max Real) (x Real) ) (=> (and (>= (+ (* 1024 1) (* 1 a ) ) 0) (>= (+ (* 1023 1) (* (- 1) a ) ) 0) (>= (+ (* 1024 1) (* 1 max ) ) 0) (>= (+ (* 1023 1) (* (- 1) max ) ) 0) (>= (+ (* 1024 1) (* 1 x ) ) 0) (>= (+ (* 1023 1) (* (- 1) x ) ) 0) ) (>= (+ (* 1 a c_1 ) (* 1 c_0 ) (* 1 c_2 max ) (* 1 c_3 x ) ) 0) )))
(assert (forall ((a Real) (max Real) (x Real) ) (=> (and (>= (+ (* (- 1) 1) (* 1 max ) ) 0) (>= (+ (* 1024 1) (* 1 a ) ) 0) (>= (+ (* 1024 1) (* 1 max ) ) 0) (>= (+ (* 1024 1) (* 1 x ) ) 0) (>= (+ (* 1023 1) (* (- 1) x ) ) 0) (>= (+ (* 1023 1) (* (- 1) max ) ) 0) (>= (+ (* 1023 1) (* (- 1) a ) ) 0) (>= (+ (* 1 a s_1 ) (* 1 max s_2 ) (* 1 s_0 ) (* 1 s_3 x ) ) 0) ) (>= (+ (* 1 max s_6 ) (* 1 s_4 ) (* 1 s_7 ) ) 0) )))
(assert (forall ((a Real) (max Real) (x Real) ) (=> (and (>= (+ (* (- 1) 1) (* 1 max ) ) 0) (>= (+ (* 1024 1) (* 1 a ) ) 0) (>= (+ (* 1024 1) (* 1 max ) ) 0) (>= (+ (* 1024 1) (* 1 x ) ) 0) (>= (+ (* 1023 1) (* (- 1) x ) ) 0) (>= (+ (* 1023 1) (* (- 1) max ) ) 0) (>= (+ (* 1023 1) (* (- 1) a ) ) 0) (>= (+ (* 1 a s_1 ) (* 1 max s_2 ) (* 1 s_0 ) (* 1 s_3 x ) ) 0) ) (>= (+ (* 1 c_4 ) (* 1 c_6 max ) (* 1 c_7 ) ) 0) )))
(assert (forall ((a Real) (max Real) (x Real) ) (=> (and (>= (+ (* (- 1) 1) (* 1 max ) ) 0) (>= (+ (* 1024 1) (* 1 a ) ) 0) (>= (+ (* 1024 1) (* 1 max ) ) 0) (>= (+ (* 1024 1) (* 1 x ) ) 0) (>= (+ (* 1023 1) (* (- 1) x ) ) 0) (>= (+ (* 1023 1) (* (- 1) max ) ) 0) (>= (+ (* 1023 1) (* (- 1) a ) ) 0) (>= (+ (* 1 a s_1 ) (* 1 max s_2 ) (* 1 s_0 ) (* 1 s_3 x ) ) 0) ) (>= (+ (* (- 1) 1) (* 1 a c_1 ) (* 1 c_0 ) (* 1 c_2 max ) (* 1 c_3 x ) (* (- 1) c_4 ) (* (- 1) c_6 max ) (* (- 1) c_7 ) ) 0) )))
(assert (forall ((a Real) (max Real) (x Real) ) (=> (and (>= (* (- 1) max ) 0) (>= (+ (* 1024 1) (* 1 a ) ) 0) (>= (+ (* 1024 1) (* 1 max ) ) 0) (>= (+ (* 1024 1) (* 1 x ) ) 0) (>= (+ (* 1023 1) (* (- 1) x ) ) 0) (>= (+ (* 1023 1) (* (- 1) max ) ) 0) (>= (+ (* 1023 1) (* (- 1) a ) ) 0) (>= (+ (* 1 a s_1 ) (* 1 max s_2 ) (* 1 s_0 ) (* 1 s_3 x ) ) 0) ) (>= (+ (* 1 a s_9 ) (* 1 max s_10 ) (* 1 s_11 x ) (* 1 s_8 ) ) 0) )))
(assert (forall ((a Real) (max Real) (x Real) ) (=> (and (>= (* (- 1) max ) 0) (>= (+ (* 1024 1) (* 1 a ) ) 0) (>= (+ (* 1024 1) (* 1 max ) ) 0) (>= (+ (* 1024 1) (* 1 x ) ) 0) (>= (+ (* 1023 1) (* (- 1) x ) ) 0) (>= (+ (* 1023 1) (* (- 1) max ) ) 0) (>= (+ (* 1023 1) (* (- 1) a ) ) 0) (>= (+ (* 1 a s_1 ) (* 1 max s_2 ) (* 1 s_0 ) (* 1 s_3 x ) ) 0) ) (>= (+ (* 1 a c_9 ) (* 1 c_10 max ) (* 1 c_11 x ) (* 1 c_8 ) ) 0) )))
(assert (forall ((a Real) (max Real) (x Real) ) (=> (and (>= (+ (* 1 max ) (* (- 1) x ) ) 0) (>= (+ (* (- 1) 1) (* (- 1) a ) (* 1 x ) ) 0) (>= (+ (* 1023 1) (* (- 1) max ) ) 0) (>= (+ (* (- 1) 1) (* 1 max ) ) 0) (>= (+ (* (- 1) 1) (* 1 a ) (* 1 x ) ) 0) (>= (+ (* 1 a s_5 ) (* 1 max s_6 ) (* 1 s_4 ) (* 1 s_7 x ) ) 0) ) (>= (+ (* 1 a s_5 ) (* 1 max s_6 ) (* 1 s_4 ) (* 1 s_5 ) (* 1 s_7 ) (* 1 s_7 x ) ) 0) )))
(assert (forall ((a Real) (max Real) (x Real) ) (=> (and (>= (+ (* 1 max ) (* (- 1) x ) ) 0) (>= (+ (* (- 1) 1) (* (- 1) a ) (* 1 x ) ) 0) (>= (+ (* 1023 1) (* (- 1) max ) ) 0) (>= (+ (* (- 1) 1) (* 1 max ) ) 0) (>= (+ (* (- 1) 1) (* 1 a ) (* 1 x ) ) 0) (>= (+ (* 1 a s_5 ) (* 1 max s_6 ) (* 1 s_4 ) (* 1 s_7 x ) ) 0) ) (>= (+ (* 1 a c_5 ) (* 1 c_4 ) (* 1 c_5 ) (* 1 c_6 max ) (* 1 c_7 ) (* 1 c_7 x ) ) 0) )))
(assert (forall ((a Real) (max Real) (x Real) ) (=> (and (>= (+ (* 1 max ) (* (- 1) x ) ) 0) (>= (+ (* (- 1) 1) (* (- 1) a ) (* 1 x ) ) 0) (>= (+ (* 1023 1) (* (- 1) max ) ) 0) (>= (+ (* (- 1) 1) (* 1 max ) ) 0) (>= (+ (* (- 1) 1) (* 1 a ) (* 1 x ) ) 0) (>= (+ (* 1 a s_5 ) (* 1 max s_6 ) (* 1 s_4 ) (* 1 s_7 x ) ) 0) ) (>= (+ (* (- 1) 1) (* (- 1) c_5 ) (* (- 1) c_7 ) ) 0) )))
(assert (forall ((a Real) (max Real) (x Real) ) (=> (and (>= (+ (* 1 max ) (* (- 1) x ) ) 0) (>= (+ (* (- 1) 1) (* (- 1) a ) (* 1 x ) ) 0) (>= (+ (* 1023 1) (* (- 1) max ) ) 0) (>= (+ (* (- 1) 1) (* 1 max ) ) 0) (>= (+ (* (- 1) 1) (* 1 a ) (* 1 x ) ) 0) (>= (+ (* 1 a s_5 ) (* 1 max s_6 ) (* 1 s_4 ) (* 1 s_7 x ) ) 0) ) (>= (+ (* 1 a s_5 ) (* 1 max s_6 ) (* 1 s_4 ) (* (- 1) s_5 ) (* 1 s_7 ) (* 1 s_7 x ) ) 0) )))
(assert (forall ((a Real) (max Real) (x Real) ) (=> (and (>= (+ (* 1 max ) (* (- 1) x ) ) 0) (>= (+ (* (- 1) 1) (* (- 1) a ) (* 1 x ) ) 0) (>= (+ (* 1023 1) (* (- 1) max ) ) 0) (>= (+ (* (- 1) 1) (* 1 max ) ) 0) (>= (+ (* (- 1) 1) (* 1 a ) (* 1 x ) ) 0) (>= (+ (* 1 a s_5 ) (* 1 max s_6 ) (* 1 s_4 ) (* 1 s_7 x ) ) 0) ) (>= (+ (* 1 a c_5 ) (* 1 c_4 ) (* (- 1) c_5 ) (* 1 c_6 max ) (* 1 c_7 ) (* 1 c_7 x ) ) 0) )))
(assert (forall ((a Real) (max Real) (x Real) ) (=> (and (>= (+ (* 1 max ) (* (- 1) x ) ) 0) (>= (+ (* (- 1) 1) (* (- 1) a ) (* 1 x ) ) 0) (>= (+ (* 1023 1) (* (- 1) max ) ) 0) (>= (+ (* (- 1) 1) (* 1 max ) ) 0) (>= (+ (* (- 1) 1) (* 1 a ) (* 1 x ) ) 0) (>= (+ (* 1 a s_5 ) (* 1 max s_6 ) (* 1 s_4 ) (* 1 s_7 x ) ) 0) ) (>= (+ (* (- 1) 1) (* 1 c_5 ) (* (- 1) c_7 ) ) 0) )))
(assert (forall ((a Real) (max Real) (x Real) ) (=> (and (>= (+ (* (- 1) 1) (* (- 1) max ) (* 1 x ) ) 0) (>= (+ (* (- 1) 1) (* (- 1) a ) (* 1 x ) ) 0) (>= (+ (* 1023 1) (* (- 1) max ) ) 0) (>= (+ (* (- 1) 1) (* 1 max ) ) 0) (>= (+ (* (- 1) 1) (* 1 a ) (* 1 x ) ) 0) (>= (+ (* 1 a s_5 ) (* 1 max s_6 ) (* 1 s_4 ) (* 1 s_7 x ) ) 0) ) (>= (+ (* 1 a s_9 ) (* 1 max s_10 ) (* 1 s_11 x ) (* 1 s_8 ) ) 0) )))
(assert (forall ((a Real) (max Real) (x Real) ) (=> (and (>= (+ (* (- 1) 1) (* (- 1) max ) (* 1 x ) ) 0) (>= (+ (* (- 1) 1) (* (- 1) a ) (* 1 x ) ) 0) (>= (+ (* 1023 1) (* (- 1) max ) ) 0) (>= (+ (* (- 1) 1) (* 1 max ) ) 0) (>= (+ (* (- 1) 1) (* 1 a ) (* 1 x ) ) 0) (>= (+ (* 1 a s_5 ) (* 1 max s_6 ) (* 1 s_4 ) (* 1 s_7 x ) ) 0) ) (>= (+ (* 1 a c_9 ) (* 1 c_10 max ) (* 1 c_11 x ) (* 1 c_8 ) ) 0) )))

(check-sat)
(get-model)
